33D32945 STP File, STP Format Version 1.0

SECTION Comment
Name    "i160-041"
Creator "Cees Duin"
Remark  "Incidence graph"
END

SECTION Graph
Nodes 160
Edges 2544
E 1 7 292
E 1 9 194
E 1 12 195
E 1 14 199
E 1 26 191
E 1 27 200
E 1 45 192
E 1 47 199
E 1 48 206
E 1 60 202
E 1 62 191
E 1 69 199
E 1 70 191
E 1 73 202
E 1 77 194
E 1 79 192
E 1 86 193
E 1 88 204
E 1 92 213
E 1 98 193
E 1 101 204
E 1 109 199
E 1 116 197
E 1 122 208
E 1 126 198
E 1 131 204
E 1 135 200
E 1 143 211
E 1 144 198
E 1 156 193
E 2 20 197
E 2 21 201
E 2 27 200
E 2 31 202
E 2 33 194
E 2 37 191
E 2 38 193
E 2 40 195
E 2 46 199
E 2 53 203
E 2 58 202
E 2 60 203
E 2 61 200
E 2 70 193
E 2 88 202
E 2 99 202
E 2 105 211
E 2 108 198
E 2 112 198
E 2 115 199
E 2 123 199
E 2 131 194
E 2 132 201
E 2 134 195
E 2 135 199
E 2 136 205
E 2 148 206
E 2 153 201
E 2 154 197
E 2 158 195
E 3 7 297
E 3 10 205
E 3 19 200
E 3 28 197
E 3 34 208
E 3 35 196
E 3 36 200
E 3 43 192
E 3 47 191
E 3 57 201
E 3 59 206
E 3 69 194
E 3 70 201
E 3 71 198
E 3 80 207
E 3 89 196
E 3 94 194
E 3 97 198
E 3 109 203
E 3 111 210
E 3 117 194
E 3 119 197
E 3 121 200
E 3 124 195
E 3 125 200
E 3 128 202
E 3 134 195
E 3 144 198
E 3 145 209
E 3 155 209
E 3 156 201
E 3 158 196
E 4 11 210
E 4 12 202
E 4 13 187
E 4 17 195
E 4 22 199
E 4 26 211
E 4 29 204
E 4 31 192
E 4 36 195
E 4 41 205
E 4 45 206
E 4 47 196
E 4 53 202
E 4 54 204
E 4 58 199
E 4 60 197
E 4 73 209
E 4 76 207
E 4 78 191
E 4 90 185
E 4 96 195
E 4 97 202
E 4 101 202
E 4 106 200
E 4 108 193
E 4 109 205
E 4 119 202
E 4 128 200
E 4 134 197
E 4 139 194
E 4 141 193
E 4 147 192
E 4 149 203
E 5 7 283
E 5 11 197
E 5 12 195
E 5 16 193
E 5 21 203
E 5 24 201
E 5 25 193
E 5 32 192
E 5 33 196
E 5 39 193
E 5 41 203
E 5 42 205
E 5 48 196
E 5 53 193
E 5 57 200
E 5 65 196
E 5 71 193
E 5 78 192
E 5 85 197
E 5 89 197
E 5 94 218
E 5 111 210
E 5 118 198
E 5 126 204
E 5 128 208
E 5 132 204
E 5 133 202
E 5 143 192
E 5 145 208
E 5 148 200
E 5 149 199
E 5 150 193
E 5 153 200
E 5 157 199
E 5 158 199
E 5 160 205
E 6 16 208
E 6 18 194
E 6 27 194
E 6 33 187
E 6 38 197
E 6 39 202
E 6 43 202
E 6 52 202
E 6 53 205
E 6 55 201
E 6 70 194
E 6 75 196
E 6 80 208
E 6 81 202
E 6 82 198
E 6 85 204
E 6 91 202
E 6 100 202
E 6 107 202
E 6 109 201
E 6 111 208
E 6 120 192
E 6 130 202
E 6 131 195
E 6 134 198
E 6 135 204
E 6 141 202
E 6 143 200
E 6 145 208
E 6 151 197
E 7 13 197
E 7 15 198
E 7 18 196
E 7 27 203
E 7 28 199
E 7 29 206
E 7 32 205
E 7 33 202
E 7 34 199
E 7 35 204
E 7 37 196
E 7 43 203
E 7 48 204
E 7 51 203
E 7 52 208
E 7 59 202
E 7 64 201
E 7 69 191
E 7 74 201
E 7 76 203
E 7 79 205
E 7 81 195
E 7 90 199
E 7 91 203
E 7 93 193
E 7 96 197
E 7 97 197
E 7 102 190
E 7 113 198
E 7 116 202
E 7 123 192
E 7 126 204
E 7 129 197
E 7 142 201
E 7 151 197
E 7 158 201
E 7 159 203
E 8 9 90
E 8 13 99
E 8 15 102
E 8 23 100
E 8 25 101
E 8 26 98
E 8 30 104
E 8 34 106
E 8 37 104
E 8 39 103
E 8 40 99
E 8 42 97
E 8 50 98
E 8 58 96
E 8 59 95
E 8 61 94
E 8 62 104
E 8 67 94
E 8 68 109
E 8 69 97
E 8 70 98
E 8 76 97
E 8 81 100
E 8 96 104
E 8 100 104
E 8 105 100
E 8 114 97
E 8 115 97
E 8 128 96
E 8 130 100
E 8 136 96
E 8 149 104
E 8 150 94
E 9 11 100
E 9 15 96
E 9 19 105
E 9 22 105
E 9 27 110
E 9 30 98
E 9 34 106
E 9 38 97
E 9 39 102
E 9 53 100
E 9 55 99
E 9 57 100
E 9 58 101
E 9 59 106
E 9 75 98
E 9 80 101
E 9 82 93
E 9 90 98
E 9 97 102
E 9 106 97
E 9 110 97
E 9 117 101
E 9 118 104
E 9 128 102
E 9 139 97
E 9 147 103
E 9 149 103
E 9 150 101
E 9 156 107
E 10 11 94
E 10 12 96
E 10 20 98
E 10 28 103
E 10 40 109
E 10 46 106
E 10 51 95
E 10 56 92
E 10 57 99
E 10 64 105
E 10 68 96
E 10 83 100
E 10 84 95
E 10 89 101
E 10 94 99
E 10 97 89
E 10 109 100
E 10 113 98
E 10 116 110
E 10 119 97
E 10 126 97
E 10 128 100
E 10 136 94
E 10 144 97
E 10 146 94
E 10 149 97
E 10 152 106
E 10 154 102
E 10 159 104
E 11 20 95
E 11 28 98
E 11 39 101
E 11 41 106
E 11 45 85
E 11 50 99
E 11 58 95
E 11 61 97
E 11 68 94
E 11 72 104
E 11 78 96
E 11 83 96
E 11 87 111
E 11 93 88
E 11 95 97
E 11 104 94
E 11 107 104
E 11 111 107
E 11 128 110
E 11 136 99
E 11 143 90
E 11 145 108
E 11 146 97
E 11 147 93
E 11 151 90
E 11 159 107
E 12 13 99
E 12 14 89
E 12 19 107
E 12 25 96
E 12 32 109
E 12 34 97
E 12 35 105
E 12 38 98
E 12 53 95
E 12 55 102
E 12 56 105
E 12 62 103
E 12 67 102
E 12 68 90
E 12 81 103
E 12 84 104
E 12 95 98
E 12 97 99
E 12 98 101
E 12 99 96
E 12 102 95
E 12 104 103
E 12 105 94
E 12 110 106
E 12 112 95
E 12 113 102
E 12 114 95
E 12 119 96
E 12 125 106
E 12 126 102
E 12 134 110
E 12 138 101
E 12 140 98
E 12 143 96
E 12 146 98
E 12 147 100
E 12 148 109
E 12 154 98
E 12 156 93
E 12 160 98
E 13 18 99
E 13 24 94
E 13 26 98
E 13 47 102
E 13 49 97
E 13 51 100
E 13 53 109
E 13 65 97
E 13 68 87
E 13 70 97
E 13 82 100
E 13 83 107
E 13 85 107
E 13 90 103
E 13 94 98
E 13 95 97
E 13 98 101
E 13 100 102
E 13 114 100
E 13 122 101
E 13 123 96
E 13 128 95
E 13 129 94
E 13 132 99
E 13 134 102
E 13 147 99
E 13 150 94
E 13 155 100
E 13 158 101
E 14 15 106
E 14 17 107
E 14 20 96
E 14 23 102
E 14 27 98
E 14 32 103
E 14 34 102
E 14 35 104
E 14 51 96
E 14 52 99
E 14 54 103
E 14 56 98
E 14 63 105
E 14 69 110
E 14 73 97
E 14 74 103
E 14 75 91
E 14 82 105
E 14 90 98
E 14 96 94
E 14 97 99
E 14 110 104
E 14 112 102
E 14 124 92
E 14 126 94
E 14 138 94
E 14 141 105
E 14 146 94
E 14 152 101
E 15 20 103
E 15 26 102
E 15 30 98
E 15 32 99
E 15 52 105
E 15 53 100
E 15 67 101
E 15 74 97
E 15 75 95
E 15 78 97
E 15 79 106
E 15 82 98
E 15 94 101
E 15 95 97
E 15 98 106
E 15 100 104
E 15 107 105
E 15 112 106
E 15 115 97
E 15 118 93
E 15 122 104
E 15 128 105
E 15 129 106
E 15 138 89
E 15 139 98
E 15 142 108
E 15 145 98
E 15 146 96
E 15 150 102
E 15 155 100
E 15 157 93
E 15 160 95
E 16 18 97
E 16 23 102
E 16 24 104
E 16 28 101
E 16 31 98
E 16 33 102
E 16 36 96
E 16 41 101
E 16 44 102
E 16 54 100
E 16 59 101
E 16 80 101
E 16 85 103
E 16 86 98
E 16 93 101
E 16 99 100
E 16 100 98
E 16 102 100
E 16 105 101
E 16 113 91
E 16 115 105
E 16 126 102
E 16 130 95
E 16 133 111
E 16 135 98
E 16 137 90
E 16 138 97
E 16 150 103
E 16 153 106
E 16 156 96
E 16 157 98
E 16 159 99
E 17 24 102
E 17 30 94
E 17 38 102
E 17 42 95
E 17 50 106
E 17 52 99
E 17 58 106
E 17 68 110
E 17 77 97
E 17 79 102
E 17 81 100
E 17 86 100
E 17 87 92
E 17 90 98
E 17 92 92
E 17 103 97
E 17 105 99
E 17 110 96
E 17 121 98
E 17 130 101
E 17 141 108
E 17 144 103
E 17 147 98
E 17 153 109
E 17 154 97
E 17 156 105
E 17 157 104
E 17 159 112
E 18 22 100
E 18 32 95
E 18 39 101
E 18 47 108
E 18 51 98
E 18 53 108
E 18 58 96
E 18 62 100
E 18 65 94
E 18 71 91
E 18 72 105
E 18 75 94
E 18 82 97
E 18 92 112
E 18 100 108
E 18 110 102
E 18 117 105
E 18 130 104
E 18 133 105
E 18 137 102
E 19 20 99
E 19 23 101
E 19 31 92
E 19 33 117
E 19 35 89
E 19 39 92
E 19 51 101
E 19 56 102
E 19 66 100
E 19 72 97
E 19 76 107
E 19 82 107
E 19 90 101
E 19 94 99
E 19 98 94
E 19 104 97
E 19 128 92
E 19 133 99
E 19 140 104
E 19 141 97
E 19 146 99
E 19 148 105
E 19 152 96
E 19 155 97
E 20 24 106
E 20 28 95
E 20 29 107
E 20 32 93
E 20 34 102
E 20 36 105
E 20 49 98
E 20 59 94
E 20 61 104
E 20 62 87
E 20 72 94
E 20 85 95
E 20 87 95
E 20 95 102
E 20 98 105
E 20 114 99
E 20 115 94
E 20 117 100
E 20 120 113
E 20 130 90
E 20 140 103
E 20 141 111
E 20 146 107
E 20 148 104
E 20 151 88
E 20 156 95
E 21 26 104
E 21 27 104
E 21 30 105
E 21 37 102
E 21 38 109
E 21 45 95
E 21 53 101
E 21 56 97
E 21 68 91
E 21 72 83
E 21 73 94
E 21 76 99
E 21 84 104
E 21 85 97
E 21 91 96
E 21 92 98
E 21 100 106
E 21 102 98
E 21 103 102
E 21 107 103
E 21 116 96
E 21 138 96
E 21 145 102
E 21 150 98
E 21 155 94
E 21 156 99
E 21 159 99
E 22 24 95
E 22 25 97
E 22 34 100
E 22 43 99
E 22 45 108
E 22 50 109
E 22 52 103
E 22 57 101
E 22 71 99
E 22 76 98
E 22 80 93
E 22 82 98
E 22 86 90
E 22 87 112
E 22 90 98
E 22 91 98
E 22 92 91
E 22 93 100
E 22 95 105
E 22 107 97
E 22 120 92
E 22 127 101
E 22 130 98
E 22 139 111
E 22 141 104
E 22 147 97
E 22 152 103
E 22 160 97
E 23 30 97
E 23 39 98
E 23 41 103
E 23 43 96
E 23 45 84
E 23 60 103
E 23 65 101
E 23 72 102
E 23 74 97
E 23 81 104
E 23 84 103
E 23 85 98
E 23 89 103
E 23 90 102
E 23 91 104
E 23 94 105
E 23 96 94
E 23 97 102
E 23 102 102
E 23 103 80
E 23 107 102
E 23 108 106
E 23 125 101
E 23 126 99
E 23 133 103
E 23 136 108
E 23 142 97
E 23 150 102
E 23 155 102
E 23 159 100
E 23 160 103
E 24 33 100
E 24 35 107
E 24 39 101
E 24 45 99
E 24 52 107
E 24 55 98
E 24 56 105
E 24 59 103
E 24 63 98
E 24 64 97
E 24 65 94
E 24 74 105
E 24 78 111
E 24 81 97
E 24 84 107
E 24 85 92
E 24 90 99
E 24 91 105
E 24 107 99
E 24 116 100
E 24 119 91
E 24 124 100
E 24 125 91
E 24 139 106
E 24 143 105
E 24 148 92
E 24 149 104
E 25 28 93
E 25 30 108
E 25 39 102
E 25 43 101
E 25 58 105
E 25 72 101
E 25 73 108
E 25 81 97
E 25 82 105
E 25 83 100
E 25 96 101
E 25 99 96
E 25 101 106
E 25 112 98
E 25 115 102
E 25 120 91
E 25 121 98
E 25 133 99
E 25 146 94
E 25 155 92
E 25 158 105
E 25 159 104
E 25 160 101
E 26 44 99
E 26 45 95
E 26 52 111
E 26 54 90
E 26 57 100
E 26 61 92
E 26 69 111
E 26 70 100
E 26 76 93
E 26 77 107
E 26 79 97
E 26 89 91
E 26 93 104
E 26 94 102
E 26 119 101
E 26 130 97
E 26 143 110
E 26 145 95
E 26 150 100
E 26 152 95
E 26 157 100
E 27 44 99
E 27 49 101
E 27 55 105
E 27 64 106
E 27 74 103
E 27 76 107
E 27 79 94
E 27 86 97
E 27 88 99
E 27 94 105
E 27 96 98
E 27 97 96
E 27 110 101
E 27 111 97
E 27 113 101
E 27 116 102
E 27 127 99
E 27 129 103
E 27 130 94
E 27 132 94
E 27 141 102
E 27 142 104
E 27 143 97
E 27 144 103
E 27 147 96
E 27 150 99
E 27 152 102
E 27 160 93
E 28 32 100
E 28 35 102
E 28 36 98
E 28 44 102
E 28 46 100
E 28 52 102
E 28 55 92
E 28 57 96
E 28 62 96
E 28 79 94
E 28 81 104
E 28 84 103
E 28 109 102
E 28 113 93
E 28 114 99
E 28 122 102
E 28 126 102
E 28 128 96
E 28 130 114
E 28 133 96
E 28 149 91
E 28 151 96
E 28 154 97
E 29 36 102
E 29 44 93
E 29 54 106
E 29 55 97
E 29 58 109
E 29 60 93
E 29 65 96
E 29 73 104
E 29 75 92
E 29 80 92
E 29 81 109
E 29 82 96
E 29 92 98
E 29 102 108
E 29 103 97
E 29 108 99
E 29 111 101
E 29 113 101
E 29 115 110
E 29 123 101
E 29 127 108
E 29 150 102
E 29 152 97
E 29 155 102
E 29 159 99
E 30 31 105
E 30 34 101
E 30 36 105
E 30 37 101
E 30 44 98
E 30 46 100
E 30 47 113
E 30 50 105
E 30 56 100
E 30 57 93
E 30 83 101
E 30 86 100
E 30 92 94
E 30 97 98
E 30 116 104
E 30 143 96
E 30 151 104
E 30 157 98
E 31 37 93
E 31 40 94
E 31 47 99
E 31 50 107
E 31 52 98
E 31 57 93
E 31 59 92
E 31 60 95
E 31 66 105
E 31 70 94
E 31 71 105
E 31 84 102
E 31 85 98
E 31 88 104
E 31 89 96
E 31 90 107
E 31 98 94
E 31 102 106
E 31 106 110
E 31 108 90
E 31 112 97
E 31 114 104
E 31 123 104
E 31 128 99
E 31 129 94
E 31 135 93
E 31 137 103
E 31 138 97
E 31 142 98
E 31 143 102
E 31 147 106
E 31 153 101
E 31 157 92
E 32 37 97
E 32 47 93
E 32 51 98
E 32 53 107
E 32 57 106
E 32 64 95
E 32 67 103
E 32 68 98
E 32 71 98
E 32 73 110
E 32 84 101
E 32 85 108
E 32 94 95
E 32 101 104
E 32 108 101
E 32 109 95
E 32 111 102
E 32 114 88
E 32 117 86
E 32 118 96
E 32 127 93
E 32 130 106
E 32 132 96
E 32 144 100
E 32 146 101
E 32 147 101
E 32 153 106
E 32 158 96
E 32 159 104
E 33 38 99
E 33 43 98
E 33 48 108
E 33 49 92
E 33 51 101
E 33 52 97
E 33 57 94
E 33 66 103
E 33 72 99
E 33 82 105
E 33 89 104
E 33 92 99
E 33 93 98
E 33 98 90
E 33 109 108
E 33 110 100
E 33 111 106
E 33 120 94
E 33 124 101
E 33 126 98
E 33 131 96
E 33 134 105
E 33 136 92
E 33 140 92
E 33 145 102
E 33 150 93
E 33 156 105
E 33 157 99
E 33 158 105
E 34 43 104
E 34 49 102
E 34 50 95
E 34 66 100
E 34 67 97
E 34 68 104
E 34 83 98
E 34 98 101
E 34 100 95
E 34 103 102
E 34 115 93
E 34 117 105
E 34 118 102
E 34 128 93
E 34 130 101
E 34 140 98
E 34 142 99
E 34 150 97
E 34 156 95
E 34 160 105
E 35 38 103
E 35 40 97
E 35 41 94
E 35 47 103
E 35 49 99
E 35 50 106
E 35 54 95
E 35 56 98
E 35 57 104
E 35 63 104
E 35 71 91
E 35 78 103
E 35 81 106
E 35 88 102
E 35 105 107
E 35 111 97
E 35 115 93
E 35 118 102
E 35 121 93
E 35 129 94
E 35 144 111
E 35 145 98
E 35 147 102
E 35 149 102
E 35 159 94
E 36 37 100
E 36 39 99
E 36 46 89
E 36 47 101
E 36 48 105
E 36 50 106
E 36 53 96
E 36 55 88
E 36 64 99
E 36 67 104
E 36 78 107
E 36 85 106
E 36 96 96
E 36 99 95
E 36 102 94
E 36 115 104
E 36 116 94
E 36 117 97
E 36 120 96
E 36 121 97
E 36 135 97
E 36 145 92
E 36 146 101
E 37 38 97
E 37 50 106
E 37 52 88
E 37 59 108
E 37 65 92
E 37 66 94
E 37 69 100
E 37 76 99
E 37 82 103
E 37 88 109
E 37 89 106
E 37 92 95
E 37 93 98
E 37 94 92
E 37 99 99
E 37 100 96
E 37 102 102
E 37 110 104
E 37 111 105
E 37 112 97
E 37 121 101
E 37 123 97
E 37 124 109
E 37 126 103
E 37 133 95
E 37 137 101
E 37 148 101
E 37 149 92
E 37 157 107
E 37 159 90
E 38 40 104
E 38 48 103
E 38 51 93
E 38 52 88
E 38 74 105
E 38 78 108
E 38 80 101
E 38 83 100
E 38 84 97
E 38 94 103
E 38 96 96
E 38 97 102
E 38 103 97
E 38 108 97
E 38 120 95
E 38 121 101
E 38 123 95
E 38 128 91
E 38 129 101
E 38 130 106
E 38 131 97
E 38 144 94
E 38 146 103
E 38 148 108
E 38 154 102
E 39 40 97
E 39 41 97
E 39 44 100
E 39 46 92
E 39 48 99
E 39 49 98
E 39 52 99
E 39 55 99
E 39 59 97
E 39 62 102
E 39 63 102
E 39 64 106
E 39 67 100
E 39 69 93
E 39 76 96
E 39 80 95
E 39 91 96
E 39 94 95
E 39 97 107
E 39 99 97
E 39 100 95
E 39 101 107
E 39 116 96
E 39 121 103
E 39 133 99
E 39 135 103
E 39 145 102
E 39 149 97
E 39 150 96
E 39 151 103
E 40 41 95
E 40 43 103
E 40 44 98
E 40 53 96
E 40 57 106
E 40 63 102
E 40 65 109
E 40 69 111
E 40 75 100
E 40 77 102
E 40 84 107
E 40 105 105
E 40 106 96
E 40 107 108
E 40 109 97
E 40 112 84
E 40 113 91
E 40 114 107
E 40 117 109
E 40 121 102
E 40 125 103
E 40 126 97
E 40 132 92
E 40 134 96
E 40 136 100
E 40 137 104
E 41 42 102
E 41 51 96
E 41 56 96
E 41 65 93
E 41 66 93
E 41 67 88
E 41 75 106
E 41 82 99
E 41 83 98
E 41 89 110
E 41 97 108
E 41 98 99
E 41 104 94
E 41 114 105
E 41 118 102
E 41 119 102
E 41 120 101
E 41 127 98
E 41 132 102
E 41 146 98
E 41 151 93
E 41 155 106
E 42 48 97
E 42 60 98
E 42 63 106
E 42 75 90
E 42 79 98
E 42 80 103
E 42 82 102
E 42 85 108
E 42 91 106
E 42 94 100
E 42 99 108
E 42 101 102
E 42 103 96
E 42 106 106
E 42 110 92
E 42 121 97
E 42 123 108
E 42 132 96
E 42 133 96
E 42 135 104
E 42 137 103
E 42 140 96
E 42 147 97
E 42 150 103
E 42 155 100
E 43 44 99
E 43 50 104
E 43 54 97
E 43 59 103
E 43 64 102
E 43 75 106
E 43 78 97
E 43 83 102
E 43 95 102
E 43 97 101
E 43 101 93
E 43 109 92
E 43 111 95
E 43 112 101
E 43 113 99
E 43 114 94
E 43 118 88
E 43 119 99
E 43 130 103
E 43 135 102
E 43 136 101
E 43 157 99
E 43 160 106
E 44 50 97
E 44 56 100
E 44 58 98
E 44 59 100
E 44 60 94
E 44 61 99
E 44 63 103
E 44 67 94
E 44 71 98
E 44 72 95
E 44 83 98
E 44 86 94
E 44 93 93
E 44 95 99
E 44 96 105
E 44 97 94
E 44 101 102
E 44 102 99
E 44 103 95
E 44 106 106
E 44 108 96
E 44 112 101
E 44 121 98
E 44 126 98
E 44 130 94
E 44 138 97
E 44 145 111
E 44 147 106
E 44 150 104
E 45 46 101
E 45 55 102
E 45 57 97
E 45 74 101
E 45 79 100
E 45 81 105
E 45 84 97
E 45 86 95
E 45 90 102
E 45 95 101
E 45 107 100
E 45 116 96
E 45 122 105
E 45 124 97
E 45 130 97
E 45 139 93
E 45 142 100
E 45 148 102
E 45 154 99
E 45 156 106
E 45 160 95
E 46 51 104
E 46 61 91
E 46 63 101
E 46 66 98
E 46 67 100
E 46 69 106
E 46 71 104
E 46 72 97
E 46 81 103
E 46 85 99
E 46 91 98
E 46 97 96
E 46 100 98
E 46 103 101
E 46 110 106
E 46 112 102
E 46 114 108
E 46 115 103
E 46 116 87
E 46 149 105
E 46 154 99
E 46 156 96
E 46 157 102
E 46 160 104
E 47 51 106
E 47 57 99
E 47 61 106
E 47 70 94
E 47 74 101
E 47 77 107
E 47 84 98
E 47 86 107
E 47 90 102
E 47 92 93
E 47 103 106
E 47 114 97
E 47 118 90
E 47 121 98
E 47 128 102
E 47 132 99
E 47 144 103
E 47 154 98
E 47 158 106
E 47 160 95
E 48 52 110
E 48 68 108
E 48 69 96
E 48 71 101
E 48 77 100
E 48 83 91
E 48 88 108
E 48 89 99
E 48 94 97
E 48 99 96
E 48 112 100
E 48 113 90
E 48 115 96
E 48 116 114
E 48 131 109
E 48 133 91
E 48 138 98
E 48 141 100
E 48 142 99
E 48 152 91
E 48 153 94
E 49 56 103
E 49 62 96
E 49 65 95
E 49 73 99
E 49 77 92
E 49 81 104
E 49 85 104
E 49 91 100
E 49 93 97
E 49 99 103
E 49 100 93
E 49 102 105
E 49 109 100
E 49 113 94
E 49 116 94
E 49 128 98
E 49 132 101
E 49 143 100
E 49 150 99
E 50 58 112
E 50 61 106
E 50 65 102
E 50 69 98
E 50 77 99
E 50 82 92
E 50 84 94
E 50 89 102
E 50 100 99
E 50 101 108
E 50 104 98
E 50 108 106
E 50 126 102
E 50 128 96
E 50 130 95
E 50 134 92
E 50 139 98
E 50 140 93
E 50 141 97
E 50 153 99
E 50 155 103
E 50 158 100
E 51 53 104
E 51 54 96
E 51 56 104
E 51 59 99
E 51 63 103
E 51 75 102
E 51 76 99
E 51 79 101
E 51 85 100
E 51 88 94
E 51 91 92
E 51 99 98
E 51 103 94
E 51 114 91
E 51 121 97
E 51 122 101
E 51 123 99
E 51 126 96
E 51 132 95
E 51 138 97
E 51 139 100
E 51 145 88
E 51 154 99
E 52 54 112
E 52 58 96
E 52 60 95
E 52 67 96
E 52 68 112
E 52 84 103
E 52 88 110
E 52 94 90
E 52 98 95
E 52 103 104
E 52 108 104
E 52 109 97
E 52 119 106
E 52 121 96
E 52 124 104
E 52 125 99
E 52 128 94
E 52 129 99
E 52 130 106
E 52 133 98
E 52 134 93
E 52 135 93
E 52 136 99
E 52 145 99
E 52 154 99
E 53 54 92
E 53 57 106
E 53 59 104
E 53 61 104
E 53 66 101
E 53 67 94
E 53 70 100
E 53 74 100
E 53 86 92
E 53 95 106
E 53 98 94
E 53 111 99
E 53 119 89
E 53 121 106
E 53 122 101
E 53 134 100
E 53 140 93
E 53 141 93
E 53 144 93
E 53 145 100
E 53 152 92
E 53 158 96
E 54 56 94
E 54 57 95
E 54 66 96
E 54 73 96
E 54 80 95
E 54 84 91
E 54 106 101
E 54 119 90
E 54 120 101
E 54 123 110
E 54 125 101
E 54 135 106
E 54 137 98
E 54 142 105
E 54 151 102
E 54 152 98
E 54 155 95
E 54 157 99
E 54 160 95
E 55 62 99
E 55 78 97
E 55 79 99
E 55 93 94
E 55 94 102
E 55 99 105
E 55 113 99
E 55 114 105
E 55 115 100
E 55 122 89
E 55 134 97
E 55 140 110
E 55 141 103
E 56 63 97
E 56 66 100
E 56 67 99
E 56 68 107
E 56 69 96
E 56 78 94
E 56 87 100
E 56 88 99
E 56 89 96
E 56 93 107
E 56 96 109
E 56 98 96
E 56 99 101
E 56 100 94
E 56 103 99
E 56 108 103
E 56 113 100
E 56 114 104
E 56 122 106
E 56 125 97
E 56 128 108
E 56 131 106
E 56 132 102
E 56 134 107
E 56 135 98
E 56 143 104
E 56 154 95
E 56 156 105
E 57 58 101
E 57 67 104
E 57 69 103
E 57 73 104
E 57 78 98
E 57 80 108
E 57 89 107
E 57 90 103
E 57 100 98
E 57 107 100
E 57 108 101
E 57 109 102
E 57 110 100
E 57 113 101
E 57 114 104
E 57 118 105
E 57 121 92
E 57 131 95
E 57 139 90
E 57 158 97
E 58 59 96
E 58 68 93
E 58 77 94
E 58 79 98
E 58 82 98
E 58 85 98
E 58 91 101
E 58 98 94
E 58 106 100
E 58 110 101
E 58 114 105
E 58 115 99
E 58 124 104
E 58 129 98
E 58 134 103
E 58 135 99
E 58 137 94
E 58 140 100
E 58 141 98
E 58 149 97
E 59 63 99
E 59 64 101
E 59 66 95
E 59 67 95
E 59 73 98
E 59 75 97
E 59 78 103
E 59 81 98
E 59 84 95
E 59 88 104
E 59 93 92
E 59 95 96
E 59 100 97
E 59 105 95
E 59 110 100
E 59 118 94
E 59 142 104
E 59 144 100
E 59 147 97
E 60 61 107
E 60 62 98
E 60 68 100
E 60 71 108
E 60 73 98
E 60 77 100
E 60 81 98
E 60 83 97
E 60 88 107
E 60 89 101
E 60 90 98
E 60 96 107
E 60 103 102
E 60 104 96
E 60 112 102
E 60 121 106
E 60 123 97
E 60 137 89
E 60 140 102
E 60 142 95
E 60 143 102
E 60 146 94
E 60 151 93
E 60 155 99
E 60 157 99
E 60 158 99
E 61 67 106
E 61 73 104
E 61 74 99
E 61 76 98
E 61 77 111
E 61 85 101
E 61 93 99
E 61 94 104
E 61 95 100
E 61 99 102
E 61 101 105
E 61 105 109
E 61 110 98
E 61 116 101
E 61 117 91
E 61 120 99
E 61 122 103
E 61 134 105
E 61 140 105
E 61 141 94
E 61 142 94
E 61 148 98
E 61 149 102
E 61 160 111
E 62 63 100
E 62 76 92
E 62 79 101
E 62 83 98
E 62 84 100
E 62 91 100
E 62 97 101
E 62 99 104
E 62 100 94
E 62 102 95
E 62 104 114
E 62 106 103
E 62 109 100
E 62 112 102
E 62 120 94
E 62 123 92
E 62 125 102
E 62 129 99
E 62 137 98
E 62 145 110
E 62 147 96
E 62 148 108
E 62 153 104
E 62 156 96
E 62 158 101
E 63 72 94
E 63 86 98
E 63 87 95
E 63 88 103
E 63 94 98
E 63 95 98
E 63 98 94
E 63 111 105
E 63 121 104
E 63 125 97
E 63 134 97
E 63 135 96
E 63 142 94
E 63 151 103
E 63 155 102
E 63 157 103
E 63 159 99
E 64 65 97
E 64 72 105
E 64 74 109
E 64 75 107
E 64 81 95
E 64 82 107
E 64 84 103
E 64 86 99
E 64 94 97
E 64 102 101
E 64 103 109
E 64 107 90
E 64 111 94
E 64 112 92
E 64 117 100
E 64 118 107
E 64 121 93
E 64 122 98
E 64 124 94
E 64 132 97
E 64 133 97
E 64 138 109
E 64 152 96
E 64 156 107
E 64 158 95
E 65 67 107
E 65 69 92
E 65 70 97
E 65 88 104
E 65 94 100
E 65 99 105
E 65 100 104
E 65 110 101
E 65 113 96
E 65 114 97
E 65 130 97
E 65 141 110
E 65 144 95
E 65 147 100
E 65 149 100
E 65 152 103
E 65 153 102
E 65 157 101
E 65 159 91
E 66 80 98
E 66 87 86
E 66 92 98
E 66 93 101
E 66 101 98
E 66 106 104
E 66 109 98
E 66 115 96
E 66 116 105
E 66 119 101
E 66 120 102
E 66 128 101
E 66 134 105
E 66 136 99
E 66 137 96
E 66 138 99
E 66 144 98
E 66 147 107
E 66 149 98
E 66 158 101
E 66 159 99
E 67 83 103
E 67 84 97
E 67 86 97
E 67 87 98
E 67 88 96
E 67 90 111
E 67 111 103
E 67 119 94
E 67 120 96
E 67 121 103
E 67 129 104
E 67 134 104
E 67 144 101
E 67 153 111
E 67 157 94
E 67 160 98
E 68 70 101
E 68 71 106
E 68 80 104
E 68 88 96
E 68 89 101
E 68 104 104
E 68 106 96
E 68 108 105
E 68 122 98
E 68 134 98
E 68 143 101
E 68 157 98
E 69 74 83
E 69 81 102
E 69 86 94
E 69 87 104
E 69 94 108
E 69 117 106
E 69 120 99
E 69 126 106
E 69 131 105
E 69 139 100
E 69 143 110
E 69 144 103
E 69 149 98
E 69 156 97
E 70 71 100
E 70 72 101
E 70 76 97
E 70 78 97
E 70 81 98
E 70 85 101
E 70 91 95
E 70 97 106
E 70 100 101
E 70 103 94
E 70 104 94
E 70 113 99
E 70 114 99
E 70 125 100
E 70 128 97
E 70 130 95
E 70 134 101
E 70 138 100
E 70 139 99
E 70 145 104
E 70 147 104
E 70 151 101
E 70 159 106
E 71 75 108
E 71 81 90
E 71 87 90
E 71 91 100
E 71 99 107
E 71 105 99
E 71 106 97
E 71 111 100
E 71 116 94
E 71 128 91
E 71 137 96
E 71 140 92
E 71 147 104
E 71 148 107
E 71 149 100
E 71 152 107
E 72 75 101
E 72 78 103
E 72 82 99
E 72 91 98
E 72 92 89
E 72 93 101
E 72 101 104
E 72 118 102
E 72 126 98
E 72 127 105
E 72 135 102
E 72 140 103
E 72 143 93
E 72 149 102
E 72 152 98
E 72 153 93
E 72 157 95
E 73 74 93
E 73 76 94
E 73 77 101
E 73 80 109
E 73 85 98
E 73 89 105
E 73 90 109
E 73 93 106
E 73 100 98
E 73 106 98
E 73 109 107
E 73 119 93
E 73 123 98
E 73 125 103
E 73 137 89
E 73 145 102
E 73 153 98
E 73 154 100
E 73 157 99
E 74 76 99
E 74 78 102
E 74 83 99
E 74 92 94
E 74 103 94
E 74 105 96
E 74 107 102
E 74 109 103
E 74 114 93
E 74 122 95
E 74 135 98
E 74 136 97
E 74 140 98
E 74 141 103
E 74 149 96
E 74 155 99
E 75 77 95
E 75 79 98
E 75 80 105
E 75 83 95
E 75 89 96
E 75 90 93
E 75 91 102
E 75 93 110
E 75 96 104
E 75 102 105
E 75 104 92
E 75 107 100
E 75 115 102
E 75 116 94
E 75 119 104
E 75 123 102
E 75 125 100
E 75 126 98
E 75 129 93
E 75 131 99
E 75 135 96
E 75 138 105
E 75 142 102
E 75 148 100
E 75 150 105
E 75 152 95
E 76 77 92
E 76 80 101
E 76 94 95
E 76 128 106
E 76 129 103
E 76 133 105
E 76 134 98
E 76 141 97
E 76 143 99
E 76 147 95
E 76 154 97
E 76 156 88
E 77 86 102
E 77 87 98
E 77 92 96
E 77 96 95
E 77 99 101
E 77 102 99
E 77 112 103
E 77 117 97
E 77 118 98
E 77 123 94
E 77 137 109
E 77 144 101
E 77 145 95
E 77 149 102
E 77 151 93
E 78 79 97
E 78 83 96
E 78 84 108
E 78 87 98
E 78 90 107
E 78 94 102
E 78 95 94
E 78 102 99
E 78 106 98
E 78 109 94
E 78 110 95
E 78 114 95
E 78 125 104
E 78 131 92
E 78 133 103
E 78 143 92
E 78 145 99
E 78 151 97
E 78 152 109
E 78 153 93
E 78 155 101
E 79 80 100
E 79 87 98
E 79 97 100
E 79 108 99
E 79 109 101
E 79 132 97
E 79 136 93
E 79 137 107
E 79 148 102
E 79 149 98
E 79 151 93
E 79 154 93
E 79 159 99
E 80 82 97
E 80 85 89
E 80 86 101
E 80 88 107
E 80 90 100
E 80 91 103
E 80 95 97
E 80 101 106
E 80 102 104
E 80 110 100
E 80 113 98
E 80 114 98
E 80 117 97
E 80 120 100
E 80 121 99
E 80 122 98
E 80 124 109
E 80 127 90
E 80 139 104
E 80 143 96
E 80 144 103
E 80 155 101
E 80 156 96
E 80 159 100
E 81 84 92
E 81 94 86
E 81 105 89
E 81 109 94
E 81 111 93
E 81 115 98
E 81 121 95
E 81 125 103
E 81 137 106
E 81 140 98
E 81 151 100
E 81 159 105
E 82 96 101
E 82 101 95
E 82 102 100
E 82 106 103
E 82 109 111
E 82 111 103
E 82 113 97
E 82 119 97
E 82 120 102
E 82 128 92
E 82 131 103
E 82 134 101
E 82 151 90
E 82 154 93
E 82 158 95
E 83 87 106
E 83 92 96
E 83 109 93
E 83 111 96
E 83 116 103
E 83 117 97
E 83 118 91
E 83 122 94
E 83 123 96
E 83 127 107
E 83 129 102
E 83 133 96
E 83 139 108
E 83 143 98
E 83 149 100
E 83 151 93
E 83 154 100
E 84 87 100
E 84 91 99
E 84 97 97
E 84 105 100
E 84 113 102
E 84 123 107
E 84 127 94
E 84 129 105
E 84 137 101
E 84 138 91
E 84 140 99
E 84 152 97
E 85 86 98
E 85 87 91
E 85 101 92
E 85 102 104
E 85 104 104
E 85 112 103
E 85 120 101
E 85 121 99
E 85 123 97
E 85 127 101
E 85 136 104
E 85 145 101
E 85 153 93
E 85 158 106
E 85 160 96
E 86 93 99
E 86 102 96
E 86 109 95
E 86 115 96
E 86 129 102
E 86 131 94
E 86 139 100
E 86 143 97
E 86 148 107
E 86 152 103
E 86 155 98
E 86 159 102
E 87 88 90
E 87 90 95
E 87 104 102
E 87 111 99
E 87 115 92
E 87 117 95
E 87 123 104
E 87 124 101
E 87 127 98
E 87 130 92
E 87 143 89
E 87 144 100
E 87 150 108
E 87 151 91
E 87 154 100
E 88 92 96
E 88 97 94
E 88 99 97
E 88 105 96
E 88 115 94
E 88 137 92
E 88 138 97
E 88 149 106
E 88 150 110
E 88 160 96
E 89 95 103
E 89 111 95
E 89 114 105
E 89 115 97
E 89 117 103
E 89 130 93
E 89 134 99
E 89 136 103
E 89 145 109
E 89 148 107
E 89 153 100
E 90 93 105
E 90 96 104
E 90 98 94
E 90 103 103
E 90 109 103
E 90 114 101
E 90 115 101
E 90 126 97
E 90 137 98
E 90 144 100
E 90 145 100
E 90 151 104
E 90 152 97
E 90 160 99
E 91 94 99
E 91 101 97
E 91 102 96
E 91 103 102
E 91 110 105
E 91 122 100
E 91 124 102
E 91 129 109
E 91 145 103
E 91 156 98
E 92 99 97
E 92 102 97
E 92 119 99
E 92 128 90
E 92 129 93
E 92 137 102
E 92 145 95
E 92 146 101
E 92 151 93
E 92 153 104
E 93 94 103
E 93 100 96
E 93 101 96
E 93 116 97
E 93 119 99
E 93 127 100
E 93 137 100
E 93 152 93
E 93 153 96
E 93 154 97
E 93 155 92
E 93 159 99
E 94 98 92
E 94 104 103
E 94 112 103
E 94 113 102
E 94 125 103
E 94 138 96
E 94 139 94
E 94 140 105
E 94 145 105
E 94 147 95
E 94 148 103
E 94 150 103
E 94 158 107
E 94 159 110
E 94 160 105
E 95 96 103
E 95 104 91
E 95 112 101
E 95 113 103
E 95 118 87
E 95 135 104
E 95 139 94
E 95 143 94
E 95 150 103
E 95 152 107
E 95 156 99
E 96 97 99
E 96 103 97
E 96 104 95
E 96 106 100
E 96 107 99
E 96 111 94
E 96 125 100
E 96 126 104
E 96 129 92
E 96 133 100
E 96 137 97
E 96 141 93
E 96 143 95
E 96 147 95
E 96 149 107
E 96 155 99
E 96 156 91
E 96 158 100
E 97 110 101
E 97 126 100
E 97 132 103
E 97 141 101
E 97 142 104
E 97 143 97
E 97 153 103
E 97 156 94
E 97 159 101
E 98 105 98
E 98 117 105
E 98 124 99
E 98 143 96
E 98 145 86
E 98 148 101
E 98 154 105
E 98 155 101
E 99 117 97
E 99 119 101
E 99 124 92
E 99 126 100
E 99 133 94
E 99 142 101
E 99 149 99
E 99 154 100
E 99 155 95
E 100 101 89
E 100 102 102
E 100 103 101
E 100 111 97
E 100 112 104
E 100 114 105
E 100 117 97
E 100 119 104
E 100 121 101
E 100 128 96
E 100 129 106
E 100 131 99
E 100 135 100
E 100 145 102
E 100 151 92
E 100 155 97
E 100 158 104
E 100 160 104
E 101 103 95
E 101 114 97
E 101 124 93
E 101 128 90
E 101 131 100
E 101 134 101
E 101 139 97
E 101 141 100
E 101 153 98
E 101 155 101
E 101 158 98
E 101 159 94
E 102 106 111
E 102 115 101
E 102 116 102
E 102 121 88
E 102 125 94
E 102 135 101
E 102 136 99
E 102 139 100
E 102 140 98
E 102 142 103
E 102 150 91
E 102 151 106
E 102 155 91
E 102 157 99
E 103 105 101
E 103 110 96
E 103 112 103
E 103 122 96
E 103 126 95
E 103 128 99
E 103 133 102
E 103 134 96
E 103 139 95
E 103 140 109
E 103 141 98
E 103 150 93
E 104 112 92
E 104 115 96
E 104 118 106
E 104 123 107
E 104 127 105
E 104 131 104
E 104 145 112
E 104 146 99
E 104 147 96
E 104 158 105
E 104 159 96
E 105 110 100
E 105 112 97
E 105 114 99
E 105 122 95
E 105 123 95
E 105 124 99
E 105 128 102
E 105 133 98
E 105 139 98
E 105 141 103
E 105 142 106
E 105 143 100
E 105 146 101
E 105 149 97
E 105 151 101
E 105 155 102
E 106 108 99
E 106 114 108
E 106 117 103
E 106 128 99
E 106 131 89
E 106 140 101
E 106 156 90
E 107 110 94
E 107 112 94
E 107 113 97
E 107 121 104
E 107 123 96
E 107 131 97
E 107 136 110
E 107 143 103
E 107 149 103
E 108 111 91
E 108 122 100
E 108 123 103
E 108 128 98
E 108 129 94
E 108 132 96
E 108 134 103
E 108 137 110
E 108 147 102
E 108 150 101
E 108 157 102
E 109 117 98
E 109 125 96
E 109 126 100
E 109 128 94
E 109 133 110
E 109 136 107
E 109 142 97
E 109 144 106
E 109 145 98
E 109 146 91
E 109 147 107
E 109 148 98
E 109 152 99
E 109 159 100
E 110 117 103
E 110 118 100
E 110 129 104
E 110 130 94
E 110 143 99
E 110 148 100
E 110 154 101
E 110 157 104
E 110 159 103
E 111 113 110
E 111 124 104
E 111 128 98
E 111 132 92
E 111 138 102
E 111 140 99
E 111 150 98
E 111 155 101
E 111 157 103
E 112 113 92
E 112 116 102
E 112 122 95
E 112 123 98
E 112 126 91
E 112 132 104
E 112 141 94
E 112 144 103
E 112 147 100
E 112 156 104
E 112 160 105
E 113 117 84
E 113 119 103
E 113 124 102
E 113 132 91
E 113 134 102
E 113 136 105
E 113 143 101
E 113 144 98
E 113 147 94
E 113 149 98
E 113 159 104
E 114 122 98
E 114 126 107
E 114 128 101
E 114 132 101
E 114 136 98
E 114 153 101
E 114 155 103
E 115 118 98
E 115 119 97
E 115 123 91
E 115 128 90
E 115 129 103
E 115 130 107
E 115 149 103
E 115 155 104
E 116 124 100
E 116 127 100
E 116 128 109
E 116 133 97
E 116 144 95
E 116 147 101
E 116 150 101
E 116 155 98
E 116 157 97
E 116 159 98
E 117 119 106
E 117 121 102
E 117 123 100
E 117 125 101
E 117 127 109
E 117 134 105
E 117 139 101
E 117 140 98
E 117 147 89
E 117 150 103
E 117 154 96
E 117 156 107
E 118 120 102
E 118 143 101
E 118 145 108
E 118 152 96
E 118 158 105
E 118 159 95
E 119 123 102
E 119 124 103
E 119 128 102
E 119 138 96
E 119 139 100
E 119 140 91
E 119 141 100
E 119 146 105
E 119 158 105
E 119 159 99
E 120 121 105
E 120 125 105
E 120 129 101
E 120 134 95
E 120 141 94
E 120 143 97
E 120 155 97
E 120 159 109
E 121 127 103
E 121 133 101
E 121 134 103
E 121 138 97
E 121 139 108
E 121 143 100
E 121 144 105
E 121 159 95
E 122 123 104
E 122 127 99
E 122 128 105
E 122 129 102
E 122 134 95
E 122 137 104
E 122 139 93
E 122 153 105
E 122 154 101
E 123 130 99
E 123 134 97
E 123 144 103
E 123 154 103
E 123 160 99
E 124 125 104
E 124 130 102
E 124 132 99
E 124 135 95
E 124 139 99
E 124 146 104
E 124 147 100
E 124 150 104
E 124 153 91
E 124 155 91
E 124 157 104
E 124 160 100
E 125 128 95
E 125 150 91
E 125 153 107
E 126 127 96
E 126 129 100
E 126 130 98
E 126 133 95
E 126 139 100
E 126 143 106
E 126 144 101
E 126 145 114
E 126 146 93
E 126 152 106
E 127 129 97
E 127 130 109
E 127 131 95
E 127 132 107
E 127 146 97
E 127 147 94
E 128 133 99
E 128 138 101
E 128 141 105
E 128 142 93
E 128 143 104
E 128 145 101
E 128 148 108
E 128 157 104
E 129 134 111
E 129 140 100
E 129 156 102
E 129 157 103
E 129 158 94
E 130 131 103
E 130 137 101
E 130 140 108
E 130 148 102
E 130 159 98
E 130 160 97
E 131 137 99
E 131 141 105
E 131 146 102
E 131 150 93
E 131 155 101
E 131 159 102
E 131 160 101
E 132 135 102
E 132 137 94
E 132 142 101
E 132 145 94
E 132 148 100
E 132 152 101
E 133 137 104
E 133 144 104
E 133 147 97
E 133 148 106
E 133 153 99
E 133 159 102
E 134 143 101
E 134 147 105
E 135 140 99
E 135 146 102
E 135 158 97
E 136 141 107
E 136 153 115
E 136 156 98
E 136 160 101
E 137 142 106
E 137 144 100
E 137 146 93
E 137 151 92
E 137 155 101
E 137 157 93
E 137 159 92
E 137 160 114
E 138 155 104
E 138 159 100
E 139 143 103
E 139 145 103
E 139 153 102
E 139 158 102
E 140 144 96
E 140 154 105
E 141 146 98
E 142 145 98
E 142 150 102
E 142 152 98
E 143 145 101
E 143 159 97
E 144 145 94
E 145 148 97
E 145 154 99
E 145 156 93
E 146 153 95
E 146 155 94
E 147 148 99
E 147 150 105
E 148 153 96
E 149 151 87
E 149 156 99
E 149 160 100
E 150 151 97
E 150 154 92
E 151 160 100
E 152 154 103
E 153 154 108
E 154 159 112
E 156 159 99
E 157 159 95
END

SECTION Terminals
Terminals 7
T 1
T 2
T 3
T 4
T 5
T 6
T 7
END

EOF
